3 5 1
3 9 1 6 1 6 1 6 2 4 2 4 2 4 3 13 3 13 3 13 6 1 6 1 6 1 6 2 4 2 4 2 4 6 3 13 3 13 3 13 1 6 1 6 1 6
5 12 1 18 1 18 1 18 2 19 2 19 2 19 3 20 3 20 3 20 4 21 4 21 4 21 9 5 22 5 22 5 22 1 18 1 18 1 18 2 19 2 19 2 19 9 4 21 4 21 4 21 5 22 5 22 5 22 1 18 1 18 1 18 9 4 21 4 21 4 21 5 22 5 22 5 22 1 18 1 18 1 18 9 4 21 4 21 4 21 5 22 5 22 5 22 1 18 1 18 1 18
3 6 1 12 1 12 1 12 2 12 2 12 2 12 6 3 12 3 12 3 12 1 12 1 12 1 12 6 3 12 3 12 3 12 1 12 1 12 1 12
